language ESSENCE' 1.0

letting M_FunctionND be
        [[0, 1, 2, 3, 4; int(0..4)], [1, 1, 2, 2, 1; int(0..4)], [2, 2, 2, 2, 2; int(0..4)], [3, 2, 2, 2, 3; int(0..4)],
         [4, 1, 2, 3, 4; int(0..4)];
             int(0..4)]
$ Visualisation for M_FunctionND
$ 0 1 2 3 4
$ 1 1 2 2 1
$ 2 2 2 2 2
$ 3 2 2 2 3
$ 4 1 2 3 4

letting id be 0
